40 5
44 68 67 12 96 19 76 72 34 68 27 64 9 71 34 63 43 57 29 86 66 53 65 1 4 59 81 34 35 25 89 65 46 99 87 65 26 55 95 14 
96 29 7 43 3 42 33 96 85 14 32 23 72 83 24 96 94 61 83 76 19 99 83 14 85 5 30 28 62 71 28 34 65 71 40 53 27 12 14 77 
71 45 25 75 29 3 56 2 64 2 74 91 15 12 99 15 70 3 72 60 89 72 61 93 18 81 37 69 96 90 92 43 28 55 23 14 47 26 71 83 
97 27 68 55 49 4 42 3 83 53 35 19 83 6 28 52 51 18 27 71 53 14 76 64 92 34 98 76 3 39 70 92 73 63 63 10 37 4 83 64 
73 41 83 94 73 18 54 94 62 72 2 23 28 43 85 18 84 40 48 62 63 12 96 25 75 53 62 50 72 12 30 88 62 4 65 84 59 48 77 34 
